c Generated map
c Size: 8 * 8, weights in range: 1 to 10, walls: True, with ratio 0.05
c dim 3 of 9
c
p sp 64 101
c graph contains 64 nodes and 101 arcs
c
a 1 9 5
a 9 1 5
a 1 2 10
a 2 1 10
a 2 10 7
a 10 2 7
a 2 3 1
a 3 2 1
a 3 4 8
a 4 3 8
a 4 12 8
a 12 4 8
a 4 5 2
a 5 4 2
a 5 13 5
a 13 5 5
a 5 6 3
a 6 5 3
a 6 7 10
a 7 6 10
a 7 15 4
a 15 7 4
a 7 8 9
a 8 7 9
a 8 16 5
a 16 8 5
a 9 17 1
a 17 9 1
a 9 10 9
a 10 9 9
a 10 18 9
a 18 10 9
a 12 20 2
a 20 12 2
a 12 13 3
a 13 12 3
a 13 21 2
a 21 13 2
a 15 23 4
a 23 15 4
a 15 16 8
a 16 15 8
a 16 24 6
a 24 16 6
a 17 25 8
a 25 17 8
a 17 18 10
a 18 17 10
a 18 26 10
a 26 18 10
a 18 19 7
a 19 18 7
a 19 27 10
a 27 19 10
a 19 20 5
a 20 19 5
a 20 28 2
a 28 20 2
a 20 21 10
a 21 20 10
a 21 29 6
a 29 21 6
a 21 22 9
a 22 21 9
a 22 30 5
a 30 22 5
a 22 23 2
a 23 22 2
a 23 31 5
a 31 23 5
a 23 24 3
a 24 23 3
a 24 32 6
a 32 24 6
a 25 33 6
a 33 25 6
a 25 26 9
a 26 25 9
a 26 34 6
a 34 26 6
a 26 27 4
a 27 26 4
a 27 35 3
a 35 27 3
a 27 28 4
a 28 27 4
a 28 36 2
a 36 28 2
a 28 29 8
a 29 28 8
a 29 37 9
a 37 29 9
a 29 30 6
a 30 29 6
a 30 38 8
a 38 30 8
a 30 31 1
a 31 30 1
a 31 39 6
a 39 31 6
a 31 32 8
a 32 31 8
a 32 40 8
a 40 32 8
a 33 41 2
a 41 33 2
a 33 34 6
a 34 33 6
a 34 42 9
a 42 34 9
a 34 35 3
a 35 34 3
a 35 43 2
a 43 35 2
a 35 36 6
a 36 35 6
a 36 44 4
a 44 36 4
a 36 37 5
a 37 36 5
a 37 45 4
a 45 37 4
a 37 38 10
a 38 37 10
a 38 46 9
a 46 38 9
a 38 39 5
a 39 38 5
a 39 47 9
a 47 39 9
a 39 40 4
a 40 39 4
a 40 48 7
a 48 40 7
a 41 49 3
a 49 41 3
a 41 42 7
a 42 41 7
a 42 50 1
a 50 42 1
a 42 43 2
a 43 42 2
a 43 51 3
a 51 43 3
a 43 44 8
a 44 43 8
a 44 52 10
a 52 44 10
a 44 45 4
a 45 44 4
a 45 53 10
a 53 45 10
a 45 46 2
a 46 45 2
a 46 54 4
a 54 46 4
a 46 47 2
a 47 46 2
a 47 55 8
a 55 47 8
a 47 48 2
a 48 47 2
a 48 56 7
a 56 48 7
a 49 57 6
a 57 49 6
a 49 50 2
a 50 49 2
a 50 58 6
a 58 50 6
a 50 51 10
a 51 50 10
a 51 59 7
a 59 51 7
a 51 52 4
a 52 51 4
a 52 60 8
a 60 52 8
a 52 53 7
a 53 52 7
a 53 54 10
a 54 53 10
a 54 62 10
a 62 54 10
a 54 55 7
a 55 54 7
a 55 63 10
a 63 55 10
a 55 56 7
a 56 55 7
a 56 64 3
a 64 56 3
a 57 58 4
a 58 57 4
a 58 59 9
a 59 58 9
a 59 60 8
a 60 59 8
a 62 63 9
a 63 62 9
a 63 64 8
a 64 63 8
